NAME: sifta_demo12
TYPE: TSP
COMMENT: Synthetic EUC_2D demo bundled with SIFTA (no external download).
DIMENSION: 12
EDGE_WEIGHT_TYPE: EUC_2D
NODE_COORD_SECTION
1 360 200
2 420 260
3 520 240
4 580 320
5 540 420
6 440 480
7 320 440
8 240 360
9 280 280
10 400 360
11 480 380
12 360 340
EOF
